problems/csplib-prob015/SchursLemma-models/noch/O2/lingeling/model_1_3-5-18-solution000001.eprime-solution
language ESSENCE' 1.0

letting boxes_PartitionAsSet_ExplicitR5_ExplicitVarSizeWithMarker_Marker be [1, 1, 4, 6, 6; int(1..5)]
letting boxes_PartitionAsSet_ExplicitR5_ExplicitVarSizeWithMarker_Values be
        [[4, 1, 1, 1, 1, 1, 1, 1, 1, 1, 1, 1, 1, 1, 1, 1, 1, 1; int(1..18)],
         [18, 1, 1, 1, 1, 1, 1, 1, 1, 1, 1, 1, 1, 1, 1, 1, 1, 1; int(1..18)],
         [1, 8, 10, 14, 1, 1, 1, 1, 1, 1, 1, 1, 1, 1, 1, 1, 1, 1; int(1..18)],
         [2, 6, 9, 12, 16, 17, 1, 1, 1, 1, 1, 1, 1, 1, 1, 1, 1, 1; int(1..18)],
         [3, 5, 7, 11, 13, 15, 1, 1, 1, 1, 1, 1, 1, 1, 1, 1, 1, 1; int(1..18)]; int(1..5)]
