problems/csplib-prob015/SchursLemma-models/noch/O2/lingeling/model_1_3-5-18-solution000001.solution
language Essence 1.3

letting boxes be partition({1, 8, 10, 14}, {2, 6, 9, 12, 16, 17}, {3, 5, 7, 11, 13, 15}, {4}, {18})
